56137
3, 6, 28, 55, 26, 49, 48, 21, 29, 22, 10, 16, 46, 39, 36, 15, 25, 31, 27, 1, 33, 42, 11, 45, 52, 14, 2, 9, 12, 4, 18, 30, 47, 54, 34, 53, 23, 17, 19, 32, 8, 44, 38, 50, 20, 24, 5, 35, 41, 13, 51, 37, 7, 40, 43
